100
128
5
19
20
1
1
20
20
7
46
7
38
18
25
1
14
23
24
4
30
34
14
34
28
14
36
24
1
17
16
15
14
21
3
25
27
16
26
36
61
42
62
17
27
46
2
29
62
9
2
14
12
46
48
7
43
50
49
55
47
37
25
1
4
24
1
35
36
61
33
50
52
57
35
13
3
64
1
40
8
6
56
46
14
54
48
12
14
48
28
35
32
52
50
1
32
4
41
2
63
15